presolving:
(round 1, fast)       1 del vars, 1 del conss, 0 add conss, 0 chg bounds, 0 chg sides, 0 chg coeffs, 0 upgd conss, 0 impls, 682 clqs
(round 2, exhaustive) 1 del vars, 3 del conss, 0 add conss, 0 chg bounds, 0 chg sides, 0 chg coeffs, 0 upgd conss, 0 impls, 682 clqs
(round 3, exhaustive) 1 del vars, 23 del conss, 0 add conss, 0 chg bounds, 20 chg sides, 0 chg coeffs, 0 upgd conss, 0 impls, 682 clqs
(round 4, exhaustive) 1 del vars, 23 del conss, 0 add conss, 0 chg bounds, 20 chg sides, 0 chg coeffs, 662 upgd conss, 0 impls, 682 clqs
   (0.0s) sparsify finished: 3/3771 (0.1%) nonzeros canceled - in total 3 canceled nonzeros, 3 changed coefficients, 0 added nonzeros
   (0.0s) probing: 783/1269 (61.7%) - 0 fixings, 0 aggregations, 354 implications, 0 bound changes
   (0.0s) probing aborted: 50/50 successive totally useless probings
   (0.0s) symmetry computation started: requiring (bin +, int +, cont +), (fixed: bin -, int -, cont -)
   (0.1s) no symmetry present (symcode time: 0.00)
presolving (5 rounds: 5 fast, 4 medium, 4 exhaustive):
 1 deleted vars, 23 deleted constraints, 0 added constraints, 0 tightened bounds, 0 added holes, 20 changed sides, 3 changed coefficients
 0 implications, 1036 cliques
presolved problem has 1269 variables (1269 bin, 0 int, 0 impl, 0 cont) and 1122 constraints
    662 constraints of type <setppc>
    460 constraints of type <linear>
transformed objective value is always integral (scale: 1)
Presolving Time: 0.05

 time | node  | left  |LP iter|LP it/n|mem/heur|mdpt |vars |cons |rows |cuts |sepa|confs|strbr|  dualbound   | primalbound  |  gap   | compl. 
* 0.1s|     1 |     0 |   293 |     - |    LP  |   0 |1269 |1156 |1122 |   0 |  0 |  33 |   0 | 3.680000e+02 | 3.680000e+02 |   0.00%| unknown
  0.1s|     1 |     0 |   293 |     - |    13M |   0 |1269 |1156 |1122 |   0 |  0 |  33 |   0 | 3.680000e+02 | 3.680000e+02 |   0.00%| unknown

SCIP Status        : problem is solved [optimal solution found]
Solving Time (sec) : 0.06
Solving Nodes      : 1
Primal Bound       : +3.68000000000000e+02 (1 solutions)
Dual Bound         : +3.68000000000000e+02
Gap                : 0.00 %
supply_node:  2
arc_in: {2: ['x2_1_2', 'x24_1_2']}
arc_out: {2: ['x2_2_3', 'x24_2_3', 'x2_2_22', 'x24_2_22', 'x2_2_25', 'x24_2_25']}
Calculation: 1 + quicksum(self.all_vars_dict[var] for var in arc_in[supply_node]) == quicksum(self.all_vars_dict[var] for var in arc_out[supply_node])
supply_node:  24
arc_in: {24: ['x2_1_24', 'x24_1_24', 'x2_35_24', 'x24_35_24', 'x2_46_24', 'x24_46_24']}
arc_out: {24: ['x2_24_25', 'x24_24_25', 'x2_24_47', 'x24_24_47']}
Calculation: 1 + quicksum(self.all_vars_dict[var] for var in arc_in[supply_node]) == quicksum(self.all_vars_dict[var] for var in arc_out[supply_node])
demand_node:  254
arc_in: {254: ['x2_16_254', 'x24_16_254', 'x2_39_254', 'x24_39_254', 'x2_62_254', 'x24_62_254', 'x2_85_254', 'x24_85_254', 'x2_108_254', 'x24_108_254', 'x2_131_254', 'x24_131_254', 'x2_154_254', 'x24_154_254', 'x2_177_254', 'x24_177_254', 'x2_200_254', 'x24_200_254', 'x2_223_254', 'x24_223_254']}
arc_out: {254: []}
Calculation: 1 + quicksum(self.all_vars_dict[var] for var in arc_in[demand_node]) == quicksum(self.all_vars_dict[var] for var in arc_out[demand_node])
demand_node:  255
arc_in: {255: ['x2_17_255', 'x24_17_255', 'x2_40_255', 'x24_40_255', 'x2_63_255', 'x24_63_255', 'x2_86_255', 'x24_86_255', 'x2_109_255', 'x24_109_255', 'x2_132_255', 'x24_132_255', 'x2_155_255', 'x24_155_255', 'x2_178_255', 'x24_178_255', 'x2_201_255', 'x24_201_255', 'x2_224_255', 'x24_224_255']}
arc_out: {255: []}
Calculation: 1 + quicksum(self.all_vars_dict[var] for var in arc_in[demand_node]) == quicksum(self.all_vars_dict[var] for var in arc_out[demand_node])
Run time: 0.09216785430908203 SEC

Solver time: 0.062148999999999996
Total time: 0.09103
Reading time: 0.0
Presolving time: 0.049507999999999996
Optimal value: 368.0
Solution:
x2_2_22 = 1.0
x2_13_14 = 1.0
x2_14_15 = 1.0
x2_15_16 = 1.0
x2_16_17 = 1.0
x2_17_255 = 1.0
x2_22_23 = 1.0
x2_23_13 = 1.0
x24_24_25 = 1.0
x24_25_45 = 1.0
x24_45_68 = 1.0
x24_68_91 = 1.0
x24_91_114 = 1.0
x24_114_115 = 1.0
x24_115_138 = 1.0
x24_138_161 = 1.0
x24_151_152 = 1.0
x24_152_153 = 1.0
x24_153_154 = 1.0
x24_154_254 = 1.0
x24_161_151 = 1.0
